language ESSENCE' 1.0

letting jobs = 102
letting horizon = 815
letting resourcesRenew = 2
letting resourcesNonrenew = 2
letting resourceLimits = [33, 38, 268, 325]
letting successors = [[2, 3, 4, 5, 6, 7, 8, 9, 10, 11, 12, 14, 15, 17, 25, 26, 27], [48, 46, 45, 44, 43, 41, 38, 34, 33, 32, 29, 22, 21, 20, 18], [53, 52, 45, 44, 39, 38, 37, 36, 35, 34, 29, 28, 13], [48, 45, 39, 34, 33, 32, 31, 28, 20, 19, 18, 16], [53, 48, 45, 44, 43, 42, 41, 40, 38, 36, 34, 30, 29, 23, 22], [62, 56, 53, 52, 51, 48, 46, 44, 43, 42, 40, 39, 38, 35, 34, 30, 29, 23], [56, 48, 45, 43, 42, 40, 39, 36, 32, 30, 29, 20, 19], [44, 40, 38, 34, 33, 28, 24, 23, 21], [62, 56, 51, 48, 45, 44, 43, 41, 40, 39, 38, 29, 28, 23], [53, 52, 48, 34, 32, 31, 28, 16], [62, 56, 53, 52, 51, 46, 45, 40, 35, 34, 30, 23], [66, 63, 62, 54, 53, 52, 49, 46, 41, 40, 38, 31, 30], [62, 56, 54, 51, 48, 46, 43, 40, 30, 23], [70, 63, 62, 61, 56, 53, 52, 51, 48, 40, 35, 30], [53, 52, 49, 39, 30, 19], [70, 69, 63, 62, 61, 60, 51, 50, 49, 43, 35], [69, 66, 62, 60, 54, 52, 51, 49, 45, 43, 38], [70, 69, 68, 64, 56, 51, 47, 42, 40, 36], [74, 70, 68, 66, 65, 63, 62, 61, 60, 59, 58, 55, 54, 51, 50, 47], [63, 62, 60, 55, 53, 52, 51, 49, 35], [70, 62, 61, 56, 54, 51, 30], [63, 62, 52, 50, 31], [85, 77, 66, 65, 61, 55, 50, 32], [75, 74, 73, 69, 68, 64, 61, 59, 51, 47, 45, 43], [101, 77, 75, 73, 69, 62, 60, 55, 52, 51, 49, 46], [77, 74, 70, 69, 68, 62, 59, 58, 51, 50, 40], [69, 68, 62, 58, 56, 50, 45, 40], [101, 99, 73, 70, 69, 68, 66, 65, 55, 42], [74, 71, 70, 68, 61, 59, 54, 50, 47], [85, 77, 74, 73, 72, 71, 69, 68, 65, 60, 59, 55, 50], [74, 73, 70, 64, 61, 59, 57, 56, 55, 51, 47], [76, 75, 73, 71, 70, 67, 64, 63, 60, 59, 58, 49], [78, 75, 72, 71, 70, 67, 62, 56, 54, 52], [85, 76, 74, 71, 67, 65, 64, 60, 59, 57, 54], [74, 68, 65, 59, 58, 54, 47], [77, 72, 71, 67, 66, 65, 62, 60, 57, 55], [101, 77, 73, 64, 62, 58, 55, 46], [84, 77, 73, 72, 71, 67, 65, 64, 61, 59, 58, 57], [98, 95, 85, 84, 79, 77, 76, 75, 73, 72, 71, 67, 65, 59], [101, 99, 97, 85, 79, 78, 75, 73, 72, 71, 67, 65, 55], [85, 82, 79, 78, 77, 71, 68, 67, 59, 55], [98, 85, 77, 75, 74, 72, 71, 67, 63, 61, 60], [101, 97, 83, 81, 78, 71, 65, 57, 55], [98, 95, 85, 84, 83, 81, 79, 77, 76, 75, 74, 73, 71, 65], [100, 99, 85, 77, 76, 72, 70, 67, 65, 63], [100, 99, 98, 97, 96, 95, 94, 85, 84, 80, 79, 76, 68, 67, 65], [100, 99, 98, 95, 90, 85, 79, 78, 77, 76, 72, 67], [98, 97, 96, 95, 92, 90, 85, 82, 81, 79, 73, 59], [100, 97, 95, 94, 84, 82, 81, 74, 72, 68, 57], [100, 95, 84, 81, 78, 76, 75, 64, 57], [99, 98, 97, 95, 94, 82, 79, 72, 71, 67], [90, 80, 79, 76, 65, 64, 58], [95, 91, 90, 82, 81, 79, 78, 59], [100, 99, 95, 90, 87, 84, 82, 79, 77, 73], [100, 96, 95, 94, 92, 91, 90, 84, 80, 76], [101, 100, 98, 95, 93, 92, 91, 90, 89, 83, 79], [99, 98, 96, 93, 92, 91, 89, 87, 80, 79], [99, 98, 96, 95, 94, 92, 89, 87, 82], [101, 100, 99, 94, 89, 86, 83, 80], [94, 90, 87, 82, 81, 79, 78], [97, 94, 93, 91, 90, 89, 86, 80], [98, 93, 90, 89, 87, 85, 79], [95, 92, 91, 88, 83, 79], [97, 96, 94, 93, 92, 87, 86], [92, 91, 89, 88, 87, 82], [98, 96, 94, 93, 88, 79], [91, 89, 88, 83, 81], [93, 92, 90, 88, 87, 86], [98, 90, 87, 86, 81], [96, 91, 90, 79], [90, 87, 80], [92, 87, 80], [91, 86, 80], [91, 88, 86], [96, 90, 89], [87, 86], [97, 94], [92, 86], [86], [88], [93], [86], [87], [89], [86], [102], [102], [102], [102], [102], [102], [102], [102], [102], [102], [102], [102], [102], [102], [102], [102], []]
letting durations = [[0], [3, 4, 8], [2, 3, 7], [3, 5, 10], [3, 4, 9], [1, 4, 7], [1, 6, 10], [3, 8, 10], [2, 2, 7], [6, 8, 9], [2, 7, 10], [2, 5, 8], [4, 5, 8], [2, 5, 5], [2, 2, 8], [4, 9, 10], [2, 8, 9], [4, 8, 10], [1, 7, 8], [2, 7, 10], [3, 4, 5], [2, 5, 9], [3, 3, 4], [1, 3, 5], [6, 7, 9], [2, 5, 6], [2, 5, 7], [3, 9, 10], [3, 6, 9], [2, 3, 9], [1, 5, 7], [6, 8, 10], [3, 3, 6], [4, 4, 10], [5, 9, 10], [2, 5, 5], [1, 6, 7], [3, 4, 5], [1, 5, 10], [2, 3, 9], [6, 9, 10], [3, 5, 9], [6, 6, 8], [3, 4, 5], [3, 4, 7], [2, 5, 8], [1, 3, 8], [1, 5, 9], [3, 8, 8], [1, 2, 4], [4, 7, 9], [7, 9, 10], [3, 6, 8], [4, 6, 9], [3, 6, 8], [4, 9, 10], [2, 8, 9], [1, 6, 9], [6, 7, 10], [1, 5, 8], [3, 9, 10], [3, 4, 8], [4, 5, 10], [6, 7, 7], [6, 6, 7], [5, 8, 9], [3, 5, 10], [4, 8, 10], [2, 6, 10], [4, 6, 10], [5, 5, 10], [3, 3, 9], [1, 2, 10], [1, 6, 9], [1, 4, 10], [2, 5, 6], [6, 7, 7], [1, 4, 9], [4, 6, 9], [2, 4, 8], [8, 8, 9], [2, 4, 6], [5, 5, 9], [3, 3, 4], [2, 2, 8], [1, 2, 9], [1, 3, 9], [2, 2, 6], [5, 6, 8], [2, 4, 8], [4, 8, 9], [2, 3, 4], [1, 6, 7], [1, 5, 6], [2, 3, 4], [8, 9, 10], [1, 1, 4], [1, 3, 9], [5, 7, 9], [5, 6, 8], [3, 7, 10], [0]]
letting resourceUsage = [[[0, 0, 0, 0]], [[2, 0, 0, 7], [0, 2, 6, 0], [0, 2, 5, 0]], [[3, 0, 10, 0], [0, 4, 0, 4], [1, 0, 8, 0]], [[0, 1, 0, 5], [0, 1, 6, 0], [0, 1, 0, 4]], [[2, 0, 0, 2], [2, 0, 0, 1], [0, 4, 0, 2]], [[4, 0, 0, 7], [0, 1, 0, 7], [1, 0, 3, 0]], [[5, 0, 0, 10], [0, 1, 7, 0], [0, 1, 4, 0]], [[0, 1, 0, 8], [0, 1, 2, 0], [3, 0, 0, 6]], [[0, 4, 0, 5], [4, 0, 0, 5], [3, 0, 3, 0]], [[1, 0, 0, 6], [1, 0, 5, 0], [1, 0, 4, 0]], [[4, 0, 0, 4], [0, 2, 0, 3], [3, 0, 0, 3]], [[5, 0, 0, 8], [3, 0, 3, 0], [3, 0, 2, 0]], [[5, 0, 8, 0], [4, 0, 8, 0], [0, 5, 0, 4]], [[0, 1, 9, 0], [1, 0, 5, 0], [1, 0, 0, 9]], [[1, 0, 0, 6], [1, 0, 7, 0], [1, 0, 6, 0]], [[2, 0, 0, 9], [2, 0, 0, 8], [0, 3, 0, 7]], [[3, 0, 0, 9], [3, 0, 4, 0], [0, 1, 3, 0]], [[3, 0, 7, 0], [0, 4, 0, 4], [3, 0, 2, 0]], [[2, 0, 0, 5], [0, 5, 0, 4], [1, 0, 0, 3]], [[2, 0, 0, 8], [0, 2, 0, 3], [0, 2, 2, 0]], [[0, 3, 0, 9], [2, 0, 0, 8], [2, 0, 0, 7]], [[0, 5, 1, 0], [2, 0, 1, 0], [1, 0, 0, 3]], [[0, 4, 0, 8], [1, 0, 0, 7], [0, 4, 0, 6]], [[2, 0, 10, 0], [0, 4, 0, 10], [0, 4, 7, 0]], [[4, 0, 0, 9], [0, 4, 7, 0], [2, 0, 0, 5]], [[0, 3, 0, 3], [0, 3, 0, 2], [1, 0, 0, 2]], [[0, 3, 9, 0], [0, 2, 0, 9], [0, 2, 9, 0]], [[4, 0, 8, 0], [4, 0, 0, 7], [4, 0, 7, 0]], [[0, 1, 2, 0], [3, 0, 0, 7], [2, 0, 0, 6]], [[3, 0, 0, 8], [0, 5, 9, 0], [2, 0, 9, 0]], [[0, 3, 7, 0], [0, 3, 5, 0], [1, 0, 0, 6]], [[2, 0, 0, 8], [0, 1, 8, 0], [0, 1, 7, 0]], [[0, 5, 0, 5], [0, 4, 6, 0], [0, 2, 0, 2]], [[1, 0, 5, 0], [0, 2, 0, 5], [1, 0, 3, 0]], [[0, 4, 0, 7], [2, 0, 0, 6], [2, 0, 2, 0]], [[0, 3, 6, 0], [0, 3, 4, 0], [0, 2, 0, 3]], [[3, 0, 9, 0], [2, 0, 8, 0], [0, 2, 7, 0]], [[0, 3, 8, 0], [0, 1, 4, 0], [2, 0, 0, 5]], [[1, 0, 0, 9], [1, 0, 0, 8], [1, 0, 1, 0]], [[0, 3, 0, 6], [3, 0, 3, 0], [2, 0, 3, 0]], [[3, 0, 0, 5], [2, 0, 7, 0], [2, 0, 5, 0]], [[0, 4, 5, 0], [0, 3, 0, 9], [2, 0, 5, 0]], [[0, 1, 0, 8], [0, 1, 5, 0], [2, 0, 0, 5]], [[0, 3, 0, 5], [4, 0, 6, 0], [4, 0, 5, 0]], [[4, 0, 0, 6], [0, 3, 0, 6], [1, 0, 0, 4]], [[0, 5, 7, 0], [4, 0, 0, 3], [0, 5, 0, 2]], [[4, 0, 0, 5], [0, 2, 6, 0], [0, 1, 4, 0]], [[0, 4, 0, 9], [2, 0, 0, 7], [0, 2, 5, 0]], [[0, 4, 2, 0], [2, 0, 0, 4], [2, 0, 2, 0]], [[0, 3, 9, 0], [0, 1, 0, 5], [2, 0, 0, 4]], [[1, 0, 7, 0], [0, 1, 4, 0], [0, 1, 0, 6]], [[3, 0, 0, 10], [3, 0, 0, 9], [2, 0, 7, 0]], [[4, 0, 8, 0], [4, 0, 7, 0], [0, 1, 8, 0]], [[3, 0, 0, 10], [3, 0, 0, 8], [0, 1, 4, 0]], [[4, 0, 0, 3], [4, 0, 0, 2], [3, 0, 0, 3]], [[0, 3, 0, 5], [0, 2, 0, 4], [0, 2, 0, 3]], [[0, 5, 0, 7], [0, 4, 0, 5], [2, 0, 0, 2]], [[5, 0, 0, 7], [3, 0, 1, 0], [0, 2, 0, 7]], [[5, 0, 0, 7], [5, 0, 8, 0], [0, 5, 8, 0]], [[0, 3, 0, 1], [1, 0, 0, 1], [1, 0, 4, 0]], [[2, 0, 0, 8], [1, 0, 5, 0], [1, 0, 0, 3]], [[3, 0, 7, 0], [3, 0, 5, 0], [1, 0, 0, 2]], [[0, 3, 9, 0], [0, 3, 0, 4], [0, 2, 0, 2]], [[0, 5, 0, 7], [2, 0, 0, 5], [0, 5, 6, 0]], [[0, 3, 5, 0], [0, 3, 0, 6], [0, 3, 0, 5]], [[0, 4, 5, 0], [3, 0, 0, 8], [3, 0, 0, 7]], [[2, 0, 9, 0], [0, 4, 8, 0], [0, 3, 7, 0]], [[5, 0, 0, 7], [0, 2, 4, 0], [3, 0, 4, 0]], [[0, 3, 8, 0], [0, 2, 0, 9], [5, 0, 6, 0]], [[3, 0, 6, 0], [0, 3, 0, 3], [2, 0, 0, 2]], [[0, 3, 0, 6], [0, 3, 4, 0], [0, 2, 0, 1]], [[0, 4, 0, 7], [3, 0, 0, 7], [0, 3, 4, 0]], [[0, 4, 4, 0], [2, 0, 0, 9], [0, 2, 1, 0]], [[0, 4, 0, 6], [1, 0, 2, 0], [0, 2, 0, 3]], [[0, 4, 0, 9], [3, 0, 7, 0], [0, 2, 0, 5]], [[3, 0, 1, 0], [3, 0, 0, 4], [3, 0, 0, 2]], [[0, 1, 9, 0], [4, 0, 0, 6], [0, 1, 0, 6]], [[0, 4, 10, 0], [0, 4, 5, 0], [3, 0, 4, 0]], [[1, 0, 10, 0], [1, 0, 0, 8], [0, 3, 6, 0]], [[0, 5, 0, 2], [0, 5, 6, 0], [1, 0, 0, 1]], [[3, 0, 0, 6], [0, 4, 0, 5], [2, 0, 4, 0]], [[1, 0, 10, 0], [1, 0, 0, 6], [0, 1, 9, 0]], [[3, 0, 0, 10], [0, 4, 0, 8], [3, 0, 5, 0]], [[0, 3, 8, 0], [2, 0, 0, 9], [0, 3, 0, 9]], [[5, 0, 0, 8], [0, 5, 5, 0], [2, 0, 0, 8]], [[5, 0, 0, 4], [0, 1, 0, 4], [5, 0, 0, 3]], [[0, 5, 5, 0], [4, 0, 0, 8], [0, 5, 0, 6]], [[0, 4, 3, 0], [4, 0, 0, 8], [3, 0, 1, 0]], [[0, 2, 4, 0], [3, 0, 4, 0], [0, 1, 4, 0]], [[0, 3, 6, 0], [0, 3, 3, 0], [1, 0, 2, 0]], [[0, 5, 9, 0], [3, 0, 0, 8], [3, 0, 3, 0]], [[0, 4, 0, 10], [0, 3, 3, 0], [1, 0, 0, 7]], [[2, 0, 0, 8], [0, 2, 5, 0], [1, 0, 4, 0]], [[0, 3, 0, 10], [3, 0, 7, 0], [0, 3, 4, 0]], [[1, 0, 0, 10], [1, 0, 0, 9], [1, 0, 2, 0]], [[5, 0, 5, 0], [0, 4, 0, 6], [0, 4, 5, 0]], [[4, 0, 0, 5], [3, 0, 2, 0], [3, 0, 1, 0]], [[3, 0, 0, 9], [3, 0, 5, 0], [3, 0, 4, 0]], [[0, 1, 10, 0], [0, 1, 9, 0], [0, 1, 8, 0]], [[5, 0, 3, 0], [0, 4, 0, 2], [4, 0, 1, 0]], [[0, 4, 2, 0], [1, 0, 2, 0], [0, 4, 0, 6]], [[0, 0, 0, 0]]]
